NAME : rc_203.1.4534820.tour
COMMENT : Length = 4534820
COMMENT : Found by LKH [Keld Helsgaun] Tue May  2 05:21:40 2017
TYPE : TOUR
DIMENSION : 19
TOUR_SECTION
1
18
17
11
14
9
13
4
10
16
12
19
15
8
6
5
7
3
2
-1
EOF
